29 68
17 9
10 4
87 11
76 56
91 63
62 87
66 27
27 54
73 78
85 67
66 33
8 62
46 6
81 24
62 39
28 51
21 51
56 89
1 76
8 74
46 77
9 21
54 79
72 16
78 17
50 66
9 13
60 82
23 97
88 98
74 20
8 26
8 61
29 32
29 86
87 26
51 22
79 12
7 39
7 10
7 57
26 100
100 60
55 23
66 21
67 77
38 49
33 95
84 3
64 48
27 8
56 56
26 80
20 31
79 76
47 29
10 34
48 86
11 72
72 20
93 36
38 3
75 28
59 42
17 15
87 54
31 67
88 31
53 78
72 97
99 99
14 71
63 64
44 95
0 27
56 29
55 35
26 55
63 31
15 7
93 79
87 84
67 28
83 82
66 19
13 34
30 34
16 78
35 10
49 75
8 24
41 63
99 35
10 97
46 56
84 48
25 75
45 27
3 23